num_offers = 35;
num_halls = 10;
start=[95,15,35,57,49,2,58,7,42,4,24,11,17,59,77,60,47,24,63,58,78,43,27,16,29,39,1,2,18,9,7,59,45,17,87];
end=[100,47,76,68,75,49,95,87,44,61,55,23,84,82,89,88,63,31,76,83,95,62,28,66,72,71,3,78,44,55,9,85,68,27,96];
price=[289,3247,3612,279,2661,2987,2200,6348,45,4534,1977,308,2598,1296,1130,2508,352,326,1022,2537,863,381,45,815,2012,2459,261,6973,1149,4624,40,1313,1505,693,101];
requirement=[371,550,623,515,239,922,204,360,297,816,703,827,867,517,210,293,205,772,456,518,630,666,225,437,375,460,926,270,570,429,255,203,704,820,604];
capacity=[580,593,329,397,303,716,949,937,370,390];
